NAME : Euclidean Random Tour : n = 100, sample = 7 
COMMENT : Coordinates are generated uniformly sampled from [0, 100000] x [0, 100000] 
DIMENSION : 100 
EDGE_WEIGHT_TYPE : EUC_2D 
TOUR_SECTION 
1
31
19
91
57
92
7
41
16
5
55
51
83
53
70
13
26
44
28
87
24
32
9
66
15
96
49
100
22
69
10
79
34
21
95
8
81
73
4
59
23
27
35
89
36
12
18
64
68
38
2
6
99
40
75
93
14
17
72
77
71
74
90
84
25
98
45
33
97
78
43
29
42
50
62
58
80
39
3
82
11
76
37
47
86
65
54
56
61
20
67
88
30
46
52
48
85
94
63
60
-1
